NAME : tsp50_14.214.tour
COMMENT : Length = 214
COMMENT : Found by LKH [Keld Helsgaun]
TYPE : TOUR
DIMENSION : 50
TOUR_SECTION
1
6
26
39
17
40
22
18
35
48
14
21
30
42
44
29
38
43
19
41
5
8
13
33
25
4
23
2
32
15
49
45
31
11
24
46
28
47
3
9
12
7
37
27
10
16
34
20
50
36
-1
EOF
